50
1000
394
393
391
385
384
377
373
371
370
366
365
364
359
359
359
358
357
356
352
348
346
346
324
324
323
323
323
321
320
317
316
315
310
300
296
295
295
291
289
288
287
285
283
282
281
280
280
280
274
269
